NAME 
ROWS
 N  OBJ
 L  R0      
 L  R1      
 L  R2      
 L  R3      
 E  R4      
COLUMNS
    MARKER    'MARKER'                 'INTORG'
    I0(5)     OBJ       -986
    I0(5)     R0        -284
    I0(5)     R1        -825
    I0(5)     R2        -190
    I0(5)     R3        -975
    I0(5)     R4        652
    I1(5)     OBJ       -265
    I1(5)     R0        -200
    I1(5)     R1        -724
    I1(5)     R2        -887
    I1(5)     R3        -849
    I1(5)     R4        76
    I2(5)     OBJ       -139
    I2(5)     R0        -108
    I2(5)     R1        -213
    I2(5)     R2        -15
    I2(5)     R3        -274
    I2(5)     R4        257
    I3(5)     OBJ       -686
    I3(5)     R0        -198
    I3(5)     R1        -869
    I3(5)     R2        -686
    I3(5)     R3        -125
    I3(5)     R4        265
    I4(5)     OBJ       -19
    I4(5)     R0        -213
    I4(5)     R1        -292
    I4(5)     R2        -896
    I4(5)     R3        -758
    I4(5)     R4        949
    I5(5)     OBJ       -225
    I5(5)     R0        -187
    I5(5)     R1        -168
    I5(5)     R2        -652
    I5(5)     R3        -729
    I5(5)     R4        876
    I6(5)     OBJ       -637
    I6(5)     R0        -503
    I6(5)     R1        -405
    I6(5)     R2        -201
    I6(5)     R3        -488
    I6(5)     R4        169
    I7(5)     OBJ       -174
    I7(5)     R0        -655
    I7(5)     R1        -144
    I7(5)     R2        -129
    I7(5)     R3        -853
    I7(5)     R4        990
    I8(5)     OBJ       -301
    I8(5)     R0        -967
    I8(5)     R1        -975
    I8(5)     R2        -926
    I8(5)     R3        -688
    I8(5)     R4        899
    I9(5)     OBJ       -551
    I9(5)     R0        -232
    I9(5)     R1        -951
    I9(5)     R2        -889
    I9(5)     R3        -504
    I9(5)     R4        216
    I10(5)    OBJ       -36
    I10(5)    R0        -871
    I10(5)    R1        -802
    I10(5)    R2        -662
    I10(5)    R3        -915
    I10(5)    R4        6
    I11(5)    OBJ       -680
    I11(5)    R0        -953
    I11(5)    R1        -258
    I11(5)    R2        -751
    I11(5)    R3        -877
    I11(5)    R4        874
    I12(5)    OBJ       -44
    I12(5)    R0        -497
    I12(5)    R1        -151
    I12(5)    R2        -613
    I12(5)    R3        -391
    I12(5)    R4        65
    I13(5)    OBJ       -568
    I13(5)    R0        -9
    I13(5)    R1        -909
    I13(5)    R2        -874
    I13(5)    R3        -929
    I13(5)    R4        279
    I14(5)    OBJ       -956
    I14(5)    R0        -638
    I14(5)    R1        -456
    I14(5)    R2        -619
    I14(5)    R3        -563
    I14(5)    R4        998
    I15(5)    OBJ       -537
    I15(5)    R0        -515
    I15(5)    R1        -363
    I15(5)    R2        -905
    I15(5)    R3        -286
    I15(5)    R4        822
    I16(5)    OBJ       -852
    I16(5)    R0        -234
    I16(5)    R1        -96
    I16(5)    R2        -41
    I16(5)    R3        -581
    I16(5)    R4        8
    I17(5)    OBJ       -808
    I17(5)    R0        -275
    I17(5)    R1        -959
    I17(5)    R2        -24
    I17(5)    R3        -763
    I17(5)    R4        485
    I18(5)    OBJ       -547
    I18(5)    R0        -689
    I18(5)    R1        -17
    I18(5)    R2        -48
    I18(5)    R3        -414
    I18(5)    R4        675
    I19(5)    OBJ       -659
    I19(5)    R0        -534
    I19(5)    R1        -63
    I19(5)    R2        -16
    I19(5)    R3        -507
    I19(5)    R4        695
    I20(1)    R4        1
    MARKER    'MARKER'                 'INTEND'
RHS
    RHS1      R0        -5536
    RHS1      R1        -7681
    RHS1      R2        -6468
    RHS1      R3        -8741
    RHS1      R4        5128
BOUNDS
 UP BND1      I0(5)     1
 UP BND1      I1(5)     1
 UP BND1      I2(5)     1
 UP BND1      I3(5)     1
 UP BND1      I4(5)     1
 UP BND1      I5(5)     1
 UP BND1      I6(5)     1
 UP BND1      I7(5)     1
 UP BND1      I8(5)     1
 UP BND1      I9(5)     1
 UP BND1      I10(5)    1
 UP BND1      I11(5)    1
 UP BND1      I12(5)    1
 UP BND1      I13(5)    1
 UP BND1      I14(5)    1
 UP BND1      I15(5)    1
 UP BND1      I16(5)    1
 UP BND1      I17(5)    1
 UP BND1      I18(5)    1
 UP BND1      I19(5)    1
 LI BND1      I20(1)    0
ENDATA
